24
3 57 44 32 
2 51 41 
3 22 55 20 
3 47 24 52 
3 12 37 6 
3 2 15 33 
2 19 26 
2 4 3 
3 35 31 30 
3 27 17 23 
3 1 25 11 
2 29 53 
2 18 14 
3 58 43 8 
2 45 50 
2 48 13 
3 10 5 56 
2 28 39 
3 7 59 9 
2 21 49 
2 16 34 
3 42 60 40 
2 36 54 
2 46 38 
